92 65 66 32 
60 25 82 42 
91 2 21 2 
53 67 22 27 
83 81 81 58 
69 34 99 9 
67 96 50 49 
3 28 42 18 
42 22 71 79 
93 1 63 86 
94 15 76 51 
24 58 57 31 
82 57 47 83 
11 95 13 49 
81 62 21 7 
92 27 21 76 
18 19 6 17 
93 18 40 8 
72 83 94 94 
64 45 59 56 
6 82 25 89 
81 43 84 60 
17 96 32 7 
9 69 44 40 
81 20 11 34 
30 72 0 41 
2 89 96 92 
47 26 32 85 
44 40 41 30 
10 96 70 18 
